(set-info :smt-lib-version 2.6)
(set-logic UFLIA)
(set-info :source |Benchmarks from the paper: "Extending Sledgehammer with SMT Solvers" by Jasmin Blanchette, Sascha Bohme, and Lawrence C. Paulson, CADE 2011.  Translated to SMT2 by Andrew Reynolds and Morgan Deters.|)
(set-info :category "industrial")
(set-info :status unknown)
(declare-sort S1 0)
(declare-sort S2 0)
(declare-sort S3 0)
(declare-sort S4 0)
(declare-sort S5 0)
(declare-sort S6 0)
(declare-sort S7 0)
(declare-sort S8 0)
(declare-sort S9 0)
(declare-sort S10 0)
(declare-sort S11 0)
(declare-sort S12 0)
(declare-sort S13 0)
(declare-sort S14 0)
(declare-sort S15 0)
(declare-sort S16 0)
(declare-sort S17 0)
(declare-sort S18 0)
(declare-sort S19 0)
(declare-sort S20 0)
(declare-sort S21 0)
(declare-sort S22 0)
(declare-sort S23 0)
(declare-sort S24 0)
(declare-sort S25 0)
(declare-sort S26 0)
(declare-sort S27 0)
(declare-sort S28 0)
(declare-sort S29 0)
(declare-sort S30 0)
(declare-sort S31 0)
(declare-sort S32 0)
(declare-sort S33 0)
(declare-sort S34 0)
(declare-sort S35 0)
(declare-sort S36 0)
(declare-sort S37 0)
(declare-sort S38 0)
(declare-sort S39 0)
(declare-sort S40 0)
(declare-sort S41 0)
(declare-sort S42 0)
(declare-sort S43 0)
(declare-sort S44 0)
(declare-sort S45 0)
(declare-sort S46 0)
(declare-sort S47 0)
(declare-sort S48 0)
(declare-sort S49 0)
(declare-sort S50 0)
(declare-sort S51 0)
(declare-sort S52 0)
(declare-sort S53 0)
(declare-sort S54 0)
(declare-sort S55 0)
(declare-sort S56 0)
(declare-sort S57 0)
(declare-sort S58 0)
(declare-sort S59 0)
(declare-sort S60 0)
(declare-sort S61 0)
(declare-sort S62 0)
(declare-sort S63 0)
(declare-sort S64 0)
(declare-sort S65 0)
(declare-fun f1 () S1)
(declare-fun f2 () S1)
(declare-fun f3 (S4 S3) S1)
(declare-fun f4 (S5 S2) S4)
(declare-fun f5 () S5)
(declare-fun f6 () S5)
(declare-fun f7 (S6 S7) S3)
(declare-fun f8 (S8 S9) S6)
(declare-fun f9 (S10 S3) S8)
(declare-fun f10 () S10)
(declare-fun f11 (S11 S12) S9)
(declare-fun f12 () S11)
(declare-fun f13 () S12)
(declare-fun f14 (S13 S3) S7)
(declare-fun f15 () S13)
(declare-fun f16 (S14 S15) S1)
(declare-fun f17 (S16 S14) S14)
(declare-fun f18 () S16)
(declare-fun f19 (S17 S15) S16)
(declare-fun f20 () S17)
(declare-fun f21 () S14)
(declare-fun f22 (S18 S15) S14)
(declare-fun f23 () S18)
(declare-fun f24 () S18)
(declare-fun f25 () S17)
(declare-fun f26 (S19 S14) S1)
(declare-fun f27 (S20 S15) S19)
(declare-fun f28 () S20)
(declare-fun f29 () S17)
(declare-fun f30 () S17)
(declare-fun f31 () S17)
(declare-fun f32 (S21 S3) S5)
(declare-fun f33 () S21)
(declare-fun f34 (S22 S2) S5)
(declare-fun f35 (S23 S5) S22)
(declare-fun f36 () S23)
(declare-fun f37 (S24 S5) S5)
(declare-fun f38 (S25 S5) S24)
(declare-fun f39 () S25)
(declare-fun f40 (S26 S4) S5)
(declare-fun f41 (S27 S5) S26)
(declare-fun f42 () S27)
(declare-fun f43 (S28 S1) S24)
(declare-fun f44 () S28)
(declare-fun f45 (S29 S15) S18)
(declare-fun f46 (S30 S1) S29)
(declare-fun f47 () S30)
(declare-fun f48 (S31 S5) S21)
(declare-fun f49 () S31)
(declare-fun f50 (S32 S12) S21)
(declare-fun f51 (S33 S5) S32)
(declare-fun f52 () S33)
(declare-fun f53 (S34 S12) S7)
(declare-fun f54 (S35 S3) S34)
(declare-fun f55 () S35)
(declare-fun f56 (S36 S13) S5)
(declare-fun f57 (S37 S9) S36)
(declare-fun f58 (S38 S5) S37)
(declare-fun f59 () S38)
(declare-fun f60 (S39 S3) S36)
(declare-fun f61 (S40 S12) S39)
(declare-fun f62 (S41 S5) S40)
(declare-fun f63 () S41)
(declare-fun f64 () S5)
(declare-fun f65 () S5)
(declare-fun f66 () S14)
(declare-fun f67 (S42 S14) S19)
(declare-fun f68 () S42)
(declare-fun f69 () S14)
(declare-fun f70 (S43 S5) S15)
(declare-fun f71 (S44 S45) S43)
(declare-fun f72 (S46 S5) S44)
(declare-fun f73 () S46)
(declare-fun f74 (S47 S45) S45)
(declare-fun f75 (S48 S13) S47)
(declare-fun f76 (S49 S12) S48)
(declare-fun f77 () S49)
(declare-fun f78 () S45)
(declare-fun f79 () S5)
(declare-fun f80 () S16)
(declare-fun f81 (S50 S14) S15)
(declare-fun f82 () S50)
(declare-fun f83 (S52 S15) S7)
(declare-fun f84 (S53 S51) S52)
(declare-fun f85 () S53)
(declare-fun f86 (S54 Int) S7)
(declare-fun f87 () S54)
(declare-fun f88 (S55 S13) S45)
(declare-fun f89 (S56 S9) S55)
(declare-fun f90 () S56)
(declare-fun f91 () S1)
(declare-fun f92 () S45)
(declare-fun f93 (S57 S4) S47)
(declare-fun f94 () S57)
(declare-fun f95 (S58 S45) S47)
(declare-fun f96 () S58)
(declare-fun f97 (S59 S9) S7)
(declare-fun f98 () S59)
(declare-fun f99 () S50)
(declare-fun f100 () S52)
(declare-fun f101 (S60 S3) S4)
(declare-fun f102 (S61 S45) S60)
(declare-fun f103 () S61)
(declare-fun f104 (S62 S7) S4)
(declare-fun f105 (S63 S3) S62)
(declare-fun f106 (S64 S45) S63)
(declare-fun f107 () S64)
(declare-fun f108 (S65 S7) Int)
(declare-fun f109 () S65)
(assert (not (= f1 f2)))
(assert (forall ((?v0 S2) (?v1 S3)) (= (= (f3 (f4 f5 ?v0) ?v1) f1) (= (f3 (f4 f6 ?v0) (f7 (f8 (f9 f10 ?v1) (f11 f12 f13)) (f14 f15 ?v1))) f1))))
(assert (forall ((?v0 S14) (?v1 S15)) (= (= (f16 (f17 f18 ?v0) ?v1) f1) (= ?v0 (f17 (f19 f20 ?v1) f21)))))
(assert (forall ((?v0 S15) (?v1 S15)) (= (= (f16 (f22 f23 ?v0) ?v1) f1) (= ?v0 ?v1))))
(assert (forall ((?v0 S15) (?v1 S15)) (= (= (f16 (f22 f24 ?v0) ?v1) f1) (= ?v1 ?v0))))
(assert (forall ((?v0 S15) (?v1 S14) (?v2 S15)) (= (= (f16 (f17 (f19 f25 ?v0) ?v1) ?v2) f1) (or (= ?v2 ?v0) (= (f26 (f27 f28 ?v2) ?v1) f1)))))
(assert (forall ((?v0 S15) (?v1 S14) (?v2 S15)) (= (= (f16 (f17 (f19 f29 ?v0) ?v1) ?v2) f1) (and (= ?v0 ?v2) (= (f16 ?v1 ?v2) f1)))))
(assert (forall ((?v0 S15) (?v1 S14) (?v2 S15)) (= (= (f16 (f17 (f19 f30 ?v0) ?v1) ?v2) f1) (and (= ?v2 ?v0) (= (f16 ?v1 ?v2) f1)))))
(assert (forall ((?v0 S15) (?v1 S14) (?v2 S15)) (= (= (f16 (f17 (f19 f31 ?v0) ?v1) ?v2) f1) (=> (not (= ?v2 ?v0)) (= (f16 ?v1 ?v2) f1)))))
(assert (forall ((?v0 S3) (?v1 S2) (?v2 S3)) (= (= (f3 (f4 (f32 f33 ?v0) ?v1) ?v2) f1) (= ?v2 ?v0))))
(assert (forall ((?v0 S5) (?v1 S2) (?v2 S2)) (= (f4 (f34 (f35 f36 ?v0) ?v1) ?v2) (f4 ?v0 ?v1))))
(assert (forall ((?v0 S5) (?v1 S5) (?v2 S2) (?v3 S3)) (= (= (f3 (f4 (f37 (f38 f39 ?v0) ?v1) ?v2) ?v3) f1) (or (= (f3 (f4 ?v0 ?v2) ?v3) f1) (= (f3 (f4 ?v1 ?v2) ?v3) f1)))))
(assert (forall ((?v0 S5) (?v1 S4) (?v2 S2) (?v3 S3)) (= (= (f3 (f4 (f40 (f41 f42 ?v0) ?v1) ?v2) ?v3) f1) (and (= (f3 (f4 ?v0 ?v2) ?v3) f1) (not (= (f3 ?v1 ?v3) f1))))))
(assert (forall ((?v0 S1) (?v1 S5) (?v2 S2) (?v3 S3)) (= (= (f3 (f4 (f37 (f43 f44 ?v0) ?v1) ?v2) ?v3) f1) (and (= (f3 (f4 ?v1 ?v2) ?v3) f1) (= ?v0 f1)))))
(assert (forall ((?v0 S1) (?v1 S15) (?v2 S15) (?v3 S15)) (let ((?v_0 (= ?v0 f1))) (= (= (f16 (f22 (f45 (f46 f47 ?v0) ?v1) ?v2) ?v3) f1) (and (=> (= ?v_0 true) (= ?v3 ?v1)) (=> (= ?v_0 false) (= ?v3 ?v2)))))))
(assert (forall ((?v0 S5) (?v1 S3) (?v2 S2) (?v3 S3)) (= (= (f3 (f4 (f32 (f48 f49 ?v0) ?v1) ?v2) ?v3) f1) (and (= ?v1 ?v3) (= (f3 (f4 ?v0 ?v2) ?v3) f1)))))
(assert (forall ((?v0 S5) (?v1 S12) (?v2 S3) (?v3 S2) (?v4 S3)) (= (= (f3 (f4 (f32 (f50 (f51 f52 ?v0) ?v1) ?v2) ?v3) ?v4) f1) (= (f3 (f4 ?v0 ?v3) (f7 (f8 (f9 f10 ?v4) (f11 f12 ?v1)) (f53 (f54 f55 ?v2) ?v1))) f1))))
(assert (forall ((?v0 S5) (?v1 S9) (?v2 S13) (?v3 S2) (?v4 S3)) (= (= (f3 (f4 (f56 (f57 (f58 f59 ?v0) ?v1) ?v2) ?v3) ?v4) f1) (= (f3 (f4 ?v0 ?v3) (f7 (f8 (f9 f10 ?v4) ?v1) (f14 ?v2 ?v4))) f1))))
(assert (forall ((?v0 S5) (?v1 S12) (?v2 S3) (?v3 S13) (?v4 S2) (?v5 S3)) (= (= (f3 (f4 (f56 (f60 (f61 (f62 f63 ?v0) ?v1) ?v2) ?v3) ?v4) ?v5) f1) (and (= ?v2 ?v5) (= (f3 (f4 ?v0 ?v4) (f7 (f8 (f9 f10 ?v5) (f11 f12 ?v1)) (f14 ?v3 ?v5))) f1)))))
(assert (forall ((?v0 S2) (?v1 S3)) (= (= (f3 (f4 f64 ?v0) ?v1) f1) false)))
(assert (forall ((?v0 S2) (?v1 S3)) (= (= (f3 (f4 f65 ?v0) ?v1) f1) true)))
(assert (forall ((?v0 S15)) (= (= (f16 f66 ?v0) f1) false)))
(assert (not (= (f26 (f67 f68 f69) (f17 (f19 f20 (f70 (f71 (f72 f73 f5) (f74 (f75 (f76 f77 f13) f15) f78)) f79)) f21)) f1)))
(assert (= (f26 (f67 f68 f69) (f17 (f19 f20 (f70 (f71 (f72 f73 f6) f78) f79)) f21)) f1))
(assert (forall ((?v0 S7) (?v1 S2) (?v2 S3)) (let ((?v_0 (f4 f79 ?v1))) (=> (= (f3 ?v_0 ?v2) f1) (= (f3 ?v_0 (f7 (f8 (f9 f10 ?v2) (f11 f12 f13)) ?v0)) f1)))))
(assert (forall ((?v0 S14)) (= (f26 (f67 f68 ?v0) f21) f1)))
(assert (forall ((?v0 S14) (?v1 S5) (?v2 S45)) (= (f26 (f67 f68 ?v0) (f17 (f19 f20 (f70 (f71 (f72 f73 ?v1) ?v2) f65)) f21)) f1)))
(assert (forall ((?v0 S14) (?v1 S45) (?v2 S5)) (= (f26 (f67 f68 ?v0) (f17 (f19 f20 (f70 (f71 (f72 f73 f64) ?v1) ?v2)) f21)) f1)))
(assert (forall ((?v0 S15)) (let ((?v_0 (f17 (f19 f20 ?v0) f21))) (= (f26 (f67 f68 ?v_0) ?v_0) f1))))
(assert (forall ((?v0 S5) (?v1 S45) (?v2 S5) (?v3 S5) (?v4 S45) (?v5 S5)) (= (= (f70 (f71 (f72 f73 ?v0) ?v1) ?v2) (f70 (f71 (f72 f73 ?v3) ?v4) ?v5)) (and (= ?v0 ?v3) (and (= ?v1 ?v4) (= ?v2 ?v5))))))
(assert (forall ((?v0 S14) (?v1 S14) (?v2 S14)) (let ((?v_0 (f67 f68 ?v2))) (=> (= (f26 (f67 f68 ?v0) ?v1) f1) (=> (= (f26 ?v_0 ?v0) f1) (= (f26 ?v_0 ?v1) f1))))))
(assert (forall ((?v0 S14) (?v1 S15) (?v2 S14)) (let ((?v_0 (f67 f68 ?v0)) (?v_1 (f19 f20 ?v1))) (=> (= (f26 ?v_0 (f17 ?v_1 f21)) f1) (=> (= (f26 ?v_0 ?v2) f1) (= (f26 ?v_0 (f17 ?v_1 ?v2)) f1))))))
(assert (forall ((?v0 S14) (?v1 S15) (?v2 S14)) (let ((?v_0 (f67 f68 ?v0)) (?v_1 (f19 f20 ?v1))) (=> (= (f26 ?v_0 (f17 ?v_1 ?v2)) f1) (and (= (f26 ?v_0 (f17 ?v_1 f21)) f1) (= (f26 ?v_0 ?v2) f1))))))
(assert (forall ((?v0 S14) (?v1 S5) (?v2 S45) (?v3 S5) (?v4 S5) (?v5 S5)) (let ((?v_0 (f67 f68 ?v0))) (=> (= (f26 ?v_0 (f17 (f19 f20 (f70 (f71 (f72 f73 ?v1) ?v2) ?v3)) f21)) f1) (=> (= (f26 ?v_0 (f17 (f19 f20 (f70 (f71 (f72 f73 ?v4) ?v2) ?v5)) f21)) f1) (= (f26 ?v_0 (f17 (f19 f20 (f70 (f71 (f72 f73 (f37 (f38 f39 ?v1) ?v4)) ?v2) (f37 (f38 f39 ?v3) ?v5))) f21)) f1))))))
(assert (forall ((?v0 S1) (?v1 S14) (?v2 S5) (?v3 S45) (?v4 S5)) (let ((?v_0 (f67 f68 ?v1))) (=> (=> (= ?v0 f1) (= (f26 ?v_0 (f17 (f19 f20 (f70 (f71 (f72 f73 ?v2) ?v3) ?v4)) f21)) f1)) (= (f26 ?v_0 (f17 (f19 f20 (f70 (f71 (f72 f73 (f37 (f43 f44 ?v0) ?v2)) ?v3) ?v4)) f21)) f1)))))
(assert (forall ((?v0 S14) (?v1 S5) (?v2 S45) (?v3 S5)) (=> (forall ((?v4 S3)) (= (f26 (f67 f68 ?v0) (f17 (f19 f20 (f70 (f71 (f72 f73 (f32 (f48 f49 ?v1) ?v4)) ?v2) ?v3)) f21)) f1)) (= (f26 (f67 f68 ?v0) (f17 (f19 f20 (f70 (f71 (f72 f73 ?v1) ?v2) ?v3)) f21)) f1))))
(assert (forall ((?v0 S5) (?v1 S14) (?v2 S45) (?v3 S5)) (=> (forall ((?v4 S2) (?v5 S3)) (=> (= (f3 (f4 ?v0 ?v4) ?v5) f1) (= (f26 (f67 f68 ?v1) (f17 (f19 f20 (f70 (f71 (f72 f73 (f32 f33 ?v5)) ?v2) (f34 (f35 f36 ?v3) ?v4))) f21)) f1))) (= (f26 (f67 f68 ?v1) (f17 (f19 f20 (f70 (f71 (f72 f73 ?v0) ?v2) ?v3)) f21)) f1))))
(assert (forall ((?v0 S14) (?v1 S5) (?v2 S45) (?v3 S5) (?v4 S5)) (let ((?v_0 (f67 f68 ?v0)) (?v_1 (f71 (f72 f73 ?v1) ?v2))) (=> (= (f26 ?v_0 (f17 (f19 f20 (f70 ?v_1 ?v3)) f21)) f1) (=> (forall ((?v5 S2) (?v6 S3)) (=> (= (f3 (f4 ?v3 ?v5) ?v6) f1) (= (f3 (f4 ?v4 ?v5) ?v6) f1))) (= (f26 ?v_0 (f17 (f19 f20 (f70 ?v_1 ?v4)) f21)) f1))))))
(assert (forall ((?v0 S14) (?v1 S5) (?v2 S45) (?v3 S5) (?v4 S5)) (let ((?v_0 (f67 f68 ?v0))) (=> (= (f26 ?v_0 (f17 (f19 f20 (f70 (f71 (f72 f73 ?v1) ?v2) ?v3)) f21)) f1) (=> (forall ((?v5 S2) (?v6 S3)) (=> (= (f3 (f4 ?v4 ?v5) ?v6) f1) (= (f3 (f4 ?v1 ?v5) ?v6) f1))) (= (f26 ?v_0 (f17 (f19 f20 (f70 (f71 (f72 f73 ?v4) ?v2) ?v3)) f21)) f1))))))
(assert (forall ((?v0 S14) (?v1 S5) (?v2 S45) (?v3 S5) (?v4 S12) (?v5 S3) (?v6 S13)) (let ((?v_0 (f67 f68 ?v0))) (=> (= (f26 ?v_0 (f17 (f19 f20 (f70 (f71 (f72 f73 ?v1) ?v2) (f32 (f50 (f51 f52 ?v3) ?v4) ?v5))) f21)) f1) (= (f26 ?v_0 (f17 (f19 f20 (f70 (f71 (f72 f73 (f56 (f60 (f61 (f62 f63 ?v1) ?v4) ?v5) ?v6)) (f74 (f75 (f76 f77 ?v4) ?v6) ?v2)) ?v3)) f21)) f1)))))
(assert (forall ((?v0 S15) (?v1 S15) (?v2 S14)) (let ((?v_0 (f27 f28 ?v0))) (=> (= (f26 ?v_0 (f17 (f19 f20 ?v1) ?v2)) f1) (=> (=> (= ?v0 ?v1) false) (=> (=> (= (f26 ?v_0 ?v2) f1) false) false))))))
(assert (forall ((?v0 S15) (?v1 S14) (?v2 S15)) (let ((?v_0 (f27 f28 ?v0))) (=> (=> (not (= (f26 ?v_0 ?v1) f1)) (= ?v0 ?v2)) (= (f26 ?v_0 (f17 (f19 f20 ?v2) ?v1)) f1)))))
(assert (forall ((?v0 S15)) (=> (= (f26 (f27 f28 ?v0) f21) f1) false)))
(assert (forall ((?v0 S14) (?v1 S5) (?v2 S45) (?v3 S5) (?v4 S5) (?v5 S5)) (let ((?v_0 (f67 f68 ?v0))) (=> (= (f26 ?v_0 (f17 (f19 f20 (f70 (f71 (f72 f73 ?v1) ?v2) ?v3)) f21)) f1) (=> (forall ((?v6 S2) (?v7 S3)) (=> (= (f3 (f4 ?v4 ?v6) ?v7) f1) (forall ((?v8 S3)) (=> (forall ((?v9 S2)) (=> (= (f3 (f4 ?v1 ?v9) ?v7) f1) (= (f3 (f4 ?v3 ?v9) ?v8) f1))) (= (f3 (f4 ?v5 ?v6) ?v8) f1))))) (= (f26 ?v_0 (f17 (f19 f20 (f70 (f71 (f72 f73 ?v4) ?v2) ?v5)) f21)) f1))))))
(assert (forall ((?v0 S15)) (= (f17 f80 (f22 f23 ?v0)) (f17 (f19 f20 ?v0) f21))))
(assert (forall ((?v0 S15)) (= (f17 f80 (f22 f24 ?v0)) (f17 (f19 f20 ?v0) f21))))
(assert (forall ((?v0 S15) (?v1 S14)) (= (f17 f80 (f17 (f19 f29 ?v0) ?v1)) (ite (= (f16 ?v1 ?v0) f1) (f17 (f19 f20 ?v0) f21) f21))))
(assert (forall ((?v0 S14) (?v1 S15)) (=> (= ?v0 f21) (not (= (f26 (f27 f28 ?v1) ?v0) f1)))))
(assert (forall ((?v0 S14)) (= (= (f17 f80 ?v0) f21) (forall ((?v1 S15)) (not (= (f16 ?v0 ?v1) f1))))))
(assert (forall ((?v0 S15)) (= (= (f26 (f27 f28 ?v0) f21) f1) false)))
(assert (forall ((?v0 S14)) (= (= f21 (f17 f80 ?v0)) (forall ((?v1 S15)) (not (= (f16 ?v0 ?v1) f1))))))
(assert (forall ((?v0 S14)) (= (forall ((?v1 S15)) (=> (= (f26 (f27 f28 ?v1) f21) f1) (= (f16 ?v0 ?v1) f1))) true)))
(assert (forall ((?v0 S14)) (= (exists ((?v1 S15)) (and (= (f26 (f27 f28 ?v1) f21) f1) (= (f16 ?v0 ?v1) f1))) false)))
(assert (forall ((?v0 S14)) (= (exists ((?v1 S15)) (= (f26 (f27 f28 ?v1) ?v0) f1)) (not (= ?v0 f21)))))
(assert (forall ((?v0 S14)) (= (forall ((?v1 S15)) (not (= (f26 (f27 f28 ?v1) ?v0) f1))) (= ?v0 f21))))
(assert (= f21 (f17 f80 f66)))
(assert (forall ((?v0 S15) (?v1 S14)) (=> (= (f26 (f27 f28 ?v0) ?v1) f1) (= (f17 (f19 f20 ?v0) ?v1) ?v1))))
(assert (forall ((?v0 S15) (?v1 S14) (?v2 S15)) (let ((?v_0 (f27 f28 ?v0))) (=> (= (f26 ?v_0 ?v1) f1) (= (f26 ?v_0 (f17 (f19 f20 ?v2) ?v1)) f1)))))
(assert (forall ((?v0 S15) (?v1 S14) (?v2 S14)) (let ((?v_0 (f27 f28 ?v0)) (?v_1 (f19 f20 ?v0))) (=> (not (= (f26 ?v_0 ?v1) f1)) (=> (not (= (f26 ?v_0 ?v2) f1)) (= (= (f17 ?v_1 ?v1) (f17 ?v_1 ?v2)) (= ?v1 ?v2)))))))
(assert (forall ((?v0 S15) (?v1 S14) (?v2 S15)) (= (= (f16 (f17 (f19 f20 ?v0) ?v1) ?v2) f1) (or (= ?v0 ?v2) (= (f16 ?v1 ?v2) f1)))))
(assert (forall ((?v0 S15) (?v1 S15) (?v2 S14)) (let ((?v_0 (f27 f28 ?v0))) (= (= (f26 ?v_0 (f17 (f19 f20 ?v1) ?v2)) f1) (or (= ?v0 ?v1) (= (f26 ?v_0 ?v2) f1))))))
(assert (forall ((?v0 S15) (?v1 S15) (?v2 S14)) (let ((?v_1 (f19 f20 ?v0)) (?v_0 (f19 f20 ?v1))) (= (f17 ?v_1 (f17 ?v_0 ?v2)) (f17 ?v_0 (f17 ?v_1 ?v2))))))
(assert (forall ((?v0 S15) (?v1 S14)) (let ((?v_0 (f19 f20 ?v0))) (let ((?v_1 (f17 ?v_0 ?v1))) (= (f17 ?v_0 ?v_1) ?v_1)))))
(assert (forall ((?v0 S15) (?v1 S14)) (= (f17 (f19 f20 ?v0) (f17 f80 ?v1)) (f17 f80 (f17 (f19 f31 ?v0) ?v1)))))
(assert (forall ((?v0 S15) (?v1 S14)) (= (f17 (f19 f20 ?v0) ?v1) (f17 f80 (f17 (f19 f25 ?v0) ?v1)))))
(assert (forall ((?v0 S15) (?v1 S14)) (= (f26 (f27 f28 ?v0) (f17 (f19 f20 ?v0) ?v1)) f1)))
(assert (forall ((?v0 S15) (?v1 S14)) (= (f17 (f19 f20 ?v0) ?v1) (f17 f80 (f17 (f19 f25 ?v0) ?v1)))))
(assert (forall ((?v0 S15) (?v1 S15)) (=> (= (f17 (f19 f20 ?v0) f21) (f17 (f19 f20 ?v1) f21)) (= ?v0 ?v1))))
(assert (forall ((?v0 S15) (?v1 S15)) (=> (= (f26 (f27 f28 ?v0) (f17 (f19 f20 ?v1) f21)) f1) (=> (=> (= ?v0 ?v1) false) false))))
(assert (forall ((?v0 S15) (?v1 S15) (?v2 S15) (?v3 S15)) (= (= (f17 (f19 f20 ?v0) (f17 (f19 f20 ?v1) f21)) (f17 (f19 f20 ?v2) (f17 (f19 f20 ?v3) f21))) (or (and (= ?v0 ?v2) (= ?v1 ?v3)) (and (= ?v0 ?v3) (= ?v1 ?v2))))))
(assert (forall ((?v0 S15) (?v1 S15)) (= (= (f26 (f27 f28 ?v0) (f17 (f19 f20 ?v1) f21)) f1) (= ?v0 ?v1))))
(assert (forall ((?v0 S15) (?v1 S14)) (not (= (f17 (f19 f20 ?v0) ?v1) f21))))
(assert (forall ((?v0 S15) (?v1 S14)) (not (= f21 (f17 (f19 f20 ?v0) ?v1)))))
(assert (forall ((?v0 S15) (?v1 S14)) (= (f17 f80 (f17 (f19 f30 ?v0) ?v1)) (ite (= (f16 ?v1 ?v0) f1) (f17 (f19 f20 ?v0) f21) f21))))
(assert (forall ((?v0 S15)) (= (f81 f82 (f17 (f19 f20 ?v0) f21)) ?v0)))
(assert (forall ((?v0 S51) (?v1 S5) (?v2 S45) (?v3 S5)) (= (f83 (f84 f85 ?v0) (f70 (f71 (f72 f73 ?v1) ?v2) ?v3)) (f86 f87 0))))
(assert (forall ((?v0 S14) (?v1 S5) (?v2 S9) (?v3 S13)) (= (f26 (f67 f68 ?v0) (f17 (f19 f20 (f70 (f71 (f72 f73 (f56 (f57 (f58 f59 ?v1) ?v2) ?v3)) (f88 (f89 f90 ?v2) ?v3)) ?v1)) f21)) f1)))
(assert (forall ((?v0 S15)) (= (= (f16 f21 ?v0) f1) (= f91 f1))))
(assert (forall ((?v0 S15)) (= (= (f16 f21 ?v0) f1) (= f91 f1))))
(assert (forall ((?v0 S14) (?v1 S5)) (= (f26 (f67 f68 ?v0) (f17 (f19 f20 (f70 (f71 (f72 f73 ?v1) f92) ?v1)) f21)) f1)))
(assert (forall ((?v0 S14) (?v1 S5) (?v2 S4) (?v3 S45)) (= (f26 (f67 f68 ?v0) (f17 (f19 f20 (f70 (f71 (f72 f73 (f40 (f41 f42 ?v1) ?v2)) (f74 (f93 f94 ?v2) ?v3)) ?v1)) f21)) f1)))
(assert (forall ((?v0 S14) (?v1 S5) (?v2 S45) (?v3 S5) (?v4 S45) (?v5 S5)) (let ((?v_0 (f67 f68 ?v0)) (?v_1 (f72 f73 ?v1))) (=> (= (f26 ?v_0 (f17 (f19 f20 (f70 (f71 ?v_1 ?v2) ?v3)) f21)) f1) (=> (= (f26 ?v_0 (f17 (f19 f20 (f70 (f71 (f72 f73 ?v3) ?v4) ?v5)) f21)) f1) (= (f26 ?v_0 (f17 (f19 f20 (f70 (f71 ?v_1 (f74 (f95 f96 ?v2) ?v4)) ?v5)) f21)) f1))))))
(assert (forall ((?v0 S5) (?v1 S5) (?v2 S14)) (=> (forall ((?v3 S2) (?v4 S3)) (=> (= (f3 (f4 ?v0 ?v3) ?v4) f1) (= (f3 (f4 ?v1 ?v3) ?v4) f1))) (= (f26 (f67 f68 ?v2) (f17 (f19 f20 (f70 (f71 (f72 f73 ?v0) f92) ?v1)) f21)) f1))))
(assert (forall ((?v0 S45) (?v1 S45)) (not (= (f74 (f95 f96 ?v0) ?v1) f92))))
(assert (forall ((?v0 S9) (?v1 S13)) (not (= (f88 (f89 f90 ?v0) ?v1) f92))))
(assert (forall ((?v0 S45) (?v1 S45)) (not (= f92 (f74 (f95 f96 ?v0) ?v1)))))
(assert (forall ((?v0 S9) (?v1 S13)) (not (= f92 (f88 (f89 f90 ?v0) ?v1)))))
(assert (forall ((?v0 S12) (?v1 S13) (?v2 S45)) (not (= f92 (f74 (f75 (f76 f77 ?v0) ?v1) ?v2)))))
(assert (forall ((?v0 S12) (?v1 S13) (?v2 S45)) (not (= (f74 (f75 (f76 f77 ?v0) ?v1) ?v2) f92))))
(assert (forall ((?v0 S4) (?v1 S45) (?v2 S4) (?v3 S45)) (= (= (f74 (f93 f94 ?v0) ?v1) (f74 (f93 f94 ?v2) ?v3)) (and (= ?v0 ?v2) (= ?v1 ?v3)))))
(assert (forall ((?v0 S12) (?v1 S13) (?v2 S45) (?v3 S12) (?v4 S13) (?v5 S45)) (= (= (f74 (f75 (f76 f77 ?v0) ?v1) ?v2) (f74 (f75 (f76 f77 ?v3) ?v4) ?v5)) (and (= ?v0 ?v3) (and (= ?v1 ?v4) (= ?v2 ?v5))))))
(assert (forall ((?v0 S9) (?v1 S13) (?v2 S9) (?v3 S13)) (= (= (f88 (f89 f90 ?v0) ?v1) (f88 (f89 f90 ?v2) ?v3)) (and (= ?v0 ?v2) (= ?v1 ?v3)))))
(assert (forall ((?v0 S45) (?v1 S45) (?v2 S45) (?v3 S45)) (= (= (f74 (f95 f96 ?v0) ?v1) (f74 (f95 f96 ?v2) ?v3)) (and (= ?v0 ?v2) (= ?v1 ?v3)))))
(assert (forall ((?v0 S12) (?v1 S12)) (= (= (f11 f12 ?v0) (f11 f12 ?v1)) (= ?v0 ?v1))))
(assert (forall ((?v0 S12) (?v1 S13) (?v2 S45) (?v3 S4) (?v4 S45)) (not (= (f74 (f75 (f76 f77 ?v0) ?v1) ?v2) (f74 (f93 f94 ?v3) ?v4)))))
(assert (forall ((?v0 S4) (?v1 S45) (?v2 S12) (?v3 S13) (?v4 S45)) (not (= (f74 (f93 f94 ?v0) ?v1) (f74 (f75 (f76 f77 ?v2) ?v3) ?v4)))))
(assert (forall ((?v0 S9) (?v1 S13) (?v2 S4) (?v3 S45)) (not (= (f88 (f89 f90 ?v0) ?v1) (f74 (f93 f94 ?v2) ?v3)))))
(assert (forall ((?v0 S45) (?v1 S45) (?v2 S4) (?v3 S45)) (not (= (f74 (f95 f96 ?v0) ?v1) (f74 (f93 f94 ?v2) ?v3)))))
(assert (forall ((?v0 S15) (?v1 S14)) (= (= (f26 (f27 f28 ?v0) ?v1) f1) (= (f16 ?v1 ?v0) f1))))
(assert (forall ((?v0 S14)) (= (f17 f80 ?v0) ?v0)))
(assert (forall ((?v0 S4) (?v1 S45) (?v2 S9) (?v3 S13)) (not (= (f74 (f93 f94 ?v0) ?v1) (f88 (f89 f90 ?v2) ?v3)))))
(assert (forall ((?v0 S4) (?v1 S45) (?v2 S45) (?v3 S45)) (not (= (f74 (f93 f94 ?v0) ?v1) (f74 (f95 f96 ?v2) ?v3)))))
(assert (forall ((?v0 S4) (?v1 S45)) (not (= f92 (f74 (f93 f94 ?v0) ?v1)))))
(assert (forall ((?v0 S4) (?v1 S45)) (not (= (f74 (f93 f94 ?v0) ?v1) f92))))
(assert (forall ((?v0 S12) (?v1 S13) (?v2 S45) (?v3 S45) (?v4 S45)) (not (= (f74 (f75 (f76 f77 ?v0) ?v1) ?v2) (f74 (f95 f96 ?v3) ?v4)))))
(assert (forall ((?v0 S45) (?v1 S45) (?v2 S12) (?v3 S13) (?v4 S45)) (not (= (f74 (f95 f96 ?v0) ?v1) (f74 (f75 (f76 f77 ?v2) ?v3) ?v4)))))
(assert (forall ((?v0 S12) (?v1 S13) (?v2 S45) (?v3 S9) (?v4 S13)) (not (= (f74 (f75 (f76 f77 ?v0) ?v1) ?v2) (f88 (f89 f90 ?v3) ?v4)))))
(assert (forall ((?v0 S9) (?v1 S13) (?v2 S12) (?v3 S13) (?v4 S45)) (not (= (f88 (f89 f90 ?v0) ?v1) (f74 (f75 (f76 f77 ?v2) ?v3) ?v4)))))
(assert (forall ((?v0 S9) (?v1 S13) (?v2 S45) (?v3 S45)) (not (= (f88 (f89 f90 ?v0) ?v1) (f74 (f95 f96 ?v2) ?v3)))))
(assert (forall ((?v0 S45) (?v1 S45) (?v2 S9) (?v3 S13)) (not (= (f74 (f95 f96 ?v0) ?v1) (f88 (f89 f90 ?v2) ?v3)))))
(assert (forall ((?v0 S12)) (= (f97 f98 (f11 f12 ?v0)) (f86 f87 0))))
(assert (forall ((?v0 S14)) (= (f81 f82 ?v0) (f81 f99 (f17 f18 ?v0)))))
(assert (forall ((?v0 S5) (?v1 S45) (?v2 S5)) (= (f83 f100 (f70 (f71 (f72 f73 ?v0) ?v1) ?v2)) (f86 f87 0))))
(assert (forall ((?v0 S15)) (=> (forall ((?v1 S5) (?v2 S45) (?v3 S5)) (=> (= ?v0 (f70 (f71 (f72 f73 ?v1) ?v2) ?v3)) false)) false)))
(assert (forall ((?v0 S15) (?v1 S14)) (=> (= (f26 (f27 f28 ?v0) ?v1) f1) (=> (forall ((?v2 S14)) (=> (= ?v1 (f17 (f19 f20 ?v0) ?v2)) (=> (not (= (f26 (f27 f28 ?v0) ?v2) f1)) false))) false))))
(assert (forall ((?v0 S1) (?v1 S15) (?v2 S15)) (= (ite (= ?v0 f1) ?v1 ?v2) (f81 f99 (f22 (f45 (f46 f47 ?v0) ?v1) ?v2)))))
(assert (forall ((?v0 S15)) (= (f81 f99 (f22 f24 ?v0)) ?v0)))
(assert (forall ((?v0 S15)) (= (f81 f99 (f22 f23 ?v0)) ?v0)))
(assert (forall ((?v0 S15) (?v1 S14)) (=> (= (f26 (f27 f28 ?v0) ?v1) f1) (exists ((?v2 S14)) (and (= ?v1 (f17 (f19 f20 ?v0) ?v2)) (not (= (f26 (f27 f28 ?v0) ?v2) f1)))))))
(assert (forall ((?v0 S14)) (=> (forall ((?v1 S15)) (=> (= (f26 (f27 f28 ?v1) ?v0) f1) false)) (= ?v0 f21))))
(assert (forall ((?v0 S14) (?v1 S15)) (=> (= (f16 ?v0 ?v1) f1) (=> (forall ((?v2 S15)) (=> (= (f16 ?v0 ?v2) f1) (= ?v2 ?v1))) (= (f81 f99 ?v0) ?v1)))))
(assert (forall ((?v0 S14)) (=> (exists ((?v1 S15)) (and (= (f16 ?v0 ?v1) f1) (forall ((?v2 S15)) (=> (= (f16 ?v0 ?v2) f1) (= ?v2 ?v1))))) (= (f16 ?v0 (f81 f99 ?v0)) f1))))
(assert (forall ((?v0 S14) (?v1 S15)) (=> (exists ((?v2 S15)) (and (= (f16 ?v0 ?v2) f1) (forall ((?v3 S15)) (=> (= (f16 ?v0 ?v3) f1) (= ?v3 ?v2))))) (=> (= (f16 ?v0 ?v1) f1) (= (f81 f99 ?v0) ?v1)))))
(assert (forall ((?v0 S14) (?v1 S15)) (=> (= (f16 ?v0 ?v1) f1) (=> (forall ((?v2 S15)) (=> (= (f16 ?v0 ?v2) f1) (= ?v2 ?v1))) (= (f16 ?v0 (f81 f99 ?v0)) f1)))))
(assert (forall ((?v0 S45) (?v1 S3) (?v2 S12) (?v3 S13) (?v4 S3)) (let ((?v_0 (f11 f12 ?v2))) (=> (= (f3 (f101 (f102 f103 ?v0) (f7 (f8 (f9 f10 ?v1) ?v_0) (f14 ?v3 ?v1))) ?v4) f1) (= (f3 (f101 (f102 f103 (f74 (f75 (f76 f77 ?v2) ?v3) ?v0)) ?v1) (f7 (f8 (f9 f10 ?v4) ?v_0) (f53 (f54 f55 ?v1) ?v2))) f1)))))
(assert (forall ((?v0 S4) (?v1 S3) (?v2 S45)) (=> (not (= (f3 ?v0 ?v1) f1)) (= (f3 (f101 (f102 f103 (f74 (f93 f94 ?v0) ?v2)) ?v1) ?v1) f1))))
(assert (forall ((?v0 S4) (?v1 S3) (?v2 S45) (?v3 S3) (?v4 S3)) (let ((?v_0 (f102 f103 (f74 (f93 f94 ?v0) ?v2)))) (=> (= (f3 ?v0 ?v1) f1) (=> (= (f3 (f101 (f102 f103 ?v2) ?v1) ?v3) f1) (=> (= (f3 (f101 ?v_0 ?v3) ?v4) f1) (= (f3 (f101 ?v_0 ?v1) ?v4) f1)))))))
(assert (forall ((?v0 S45) (?v1 S3) (?v2 S3) (?v3 S45) (?v4 S3)) (=> (= (f3 (f101 (f102 f103 ?v0) ?v1) ?v2) f1) (=> (= (f3 (f101 (f102 f103 ?v3) ?v2) ?v4) f1) (= (f3 (f101 (f102 f103 (f74 (f95 f96 ?v0) ?v3)) ?v1) ?v4) f1)))))
(assert (forall ((?v0 S3)) (= (f3 (f101 (f102 f103 f92) ?v0) ?v0) f1)))
(assert (forall ((?v0 S3) (?v1 S3)) (=> (= (f3 (f101 (f102 f103 f92) ?v0) ?v1) f1) (=> (=> (= ?v1 ?v0) false) false))))
(assert (forall ((?v0 S9) (?v1 S13) (?v2 S3) (?v3 S3)) (=> (= (f3 (f101 (f102 f103 (f88 (f89 f90 ?v0) ?v1)) ?v2) ?v3) f1) (=> (=> (= ?v3 (f7 (f8 (f9 f10 ?v2) ?v0) (f14 ?v1 ?v2))) false) false))))
(assert (forall ((?v0 S9) (?v1 S13) (?v2 S3)) (= (f3 (f101 (f102 f103 (f88 (f89 f90 ?v0) ?v1)) ?v2) (f7 (f8 (f9 f10 ?v2) ?v0) (f14 ?v1 ?v2))) f1)))
(assert (forall ((?v0 S45) (?v1 S3) (?v2 S3) (?v3 S3)) (let ((?v_0 (f101 (f102 f103 ?v0) ?v1))) (=> (= (f3 ?v_0 ?v2) f1) (=> (= (f3 ?v_0 ?v3) f1) (= ?v3 ?v2))))))
(assert (forall ((?v0 S12) (?v1 S13) (?v2 S45) (?v3 S3) (?v4 S3)) (=> (= (f3 (f101 (f102 f103 (f74 (f75 (f76 f77 ?v0) ?v1) ?v2)) ?v3) ?v4) f1) (=> (forall ((?v5 S3)) (let ((?v_0 (f11 f12 ?v0))) (=> (= ?v4 (f7 (f8 (f9 f10 ?v5) ?v_0) (f53 (f54 f55 ?v3) ?v0))) (=> (= (f3 (f101 (f102 f103 ?v2) (f7 (f8 (f9 f10 ?v3) ?v_0) (f14 ?v1 ?v3))) ?v5) f1) false)))) false))))
(assert (forall ((?v0 S45) (?v1 S45) (?v2 S3) (?v3 S3)) (=> (= (f3 (f101 (f102 f103 (f74 (f95 f96 ?v0) ?v1)) ?v2) ?v3) f1) (=> (forall ((?v4 S3)) (=> (= (f3 (f101 (f102 f103 ?v0) ?v2) ?v4) f1) (=> (= (f3 (f101 (f102 f103 ?v1) ?v4) ?v3) f1) false))) false))))
(assert (forall ((?v0 S4) (?v1 S45) (?v2 S3) (?v3 S3)) (=> (= (f3 (f101 (f102 f103 (f74 (f93 f94 ?v0) ?v1)) ?v2) ?v3) f1) (=> (=> (= ?v3 ?v2) (=> (not (= (f3 ?v0 ?v2) f1)) false)) (=> (forall ((?v4 S3)) (=> (= (f3 ?v0 ?v2) f1) (=> (= (f3 (f101 (f102 f103 ?v1) ?v2) ?v4) f1) (=> (= (f3 (f101 (f102 f103 (f74 (f93 f94 ?v0) ?v1)) ?v4) ?v3) f1) false)))) false)))))
(assert (forall ((?v0 S45) (?v1 S3) (?v2 S12) (?v3 S13) (?v4 S7) (?v5 S3)) (let ((?v_0 (f11 f12 ?v2))) (=> (= (f3 (f104 (f105 (f106 f107 ?v0) (f7 (f8 (f9 f10 ?v1) ?v_0) (f14 ?v3 ?v1))) ?v4) ?v5) f1) (= (f3 (f104 (f105 (f106 f107 (f74 (f75 (f76 f77 ?v2) ?v3) ?v0)) ?v1) ?v4) (f7 (f8 (f9 f10 ?v5) ?v_0) (f53 (f54 f55 ?v1) ?v2))) f1)))))
(assert (forall ((?v0 S12) (?v1 S13) (?v2 S45) (?v3 S3) (?v4 S7) (?v5 S3)) (=> (= (f3 (f104 (f105 (f106 f107 (f74 (f75 (f76 f77 ?v0) ?v1) ?v2)) ?v3) ?v4) ?v5) f1) (=> (forall ((?v6 S3)) (let ((?v_0 (f11 f12 ?v0))) (=> (= ?v5 (f7 (f8 (f9 f10 ?v6) ?v_0) (f53 (f54 f55 ?v3) ?v0))) (=> (= (f3 (f104 (f105 (f106 f107 ?v2) (f7 (f8 (f9 f10 ?v3) ?v_0) (f14 ?v1 ?v3))) ?v4) ?v6) f1) false)))) false))))
(assert (forall ((?v0 S4) (?v1 S3) (?v2 S45) (?v3 S7) (?v4 S3) (?v5 S3)) (let ((?v_0 (f106 f107 (f74 (f93 f94 ?v0) ?v2)))) (=> (= (f3 ?v0 ?v1) f1) (=> (= (f3 (f104 (f105 (f106 f107 ?v2) ?v1) ?v3) ?v4) f1) (=> (= (f3 (f104 (f105 ?v_0 ?v4) ?v3) ?v5) f1) (= (f3 (f104 (f105 ?v_0 ?v1) ?v3) ?v5) f1)))))))
(assert (forall ((?v0 S4) (?v1 S3) (?v2 S45) (?v3 S7)) (=> (not (= (f3 ?v0 ?v1) f1)) (= (f3 (f104 (f105 (f106 f107 (f74 (f93 f94 ?v0) ?v2)) ?v1) ?v3) ?v1) f1))))
(assert (forall ((?v0 S45) (?v1 S3) (?v2 S7) (?v3 S3) (?v4 S45) (?v5 S3)) (=> (= (f3 (f104 (f105 (f106 f107 ?v0) ?v1) ?v2) ?v3) f1) (=> (= (f3 (f104 (f105 (f106 f107 ?v4) ?v3) ?v2) ?v5) f1) (= (f3 (f104 (f105 (f106 f107 (f74 (f95 f96 ?v0) ?v4)) ?v1) ?v2) ?v5) f1)))))
(assert (forall ((?v0 S3) (?v1 S7) (?v2 S3)) (=> (= (f3 (f104 (f105 (f106 f107 f92) ?v0) ?v1) ?v2) f1) (=> (=> (= ?v2 ?v0) false) false))))
(assert (forall ((?v0 S3) (?v1 S7)) (= (f3 (f104 (f105 (f106 f107 f92) ?v0) ?v1) ?v0) f1)))
(assert (forall ((?v0 S9) (?v1 S13) (?v2 S3) (?v3 S7)) (= (f3 (f104 (f105 (f106 f107 (f88 (f89 f90 ?v0) ?v1)) ?v2) ?v3) (f7 (f8 (f9 f10 ?v2) ?v0) (f14 ?v1 ?v2))) f1)))
(assert (forall ((?v0 S9) (?v1 S13) (?v2 S3) (?v3 S7) (?v4 S3)) (=> (= (f3 (f104 (f105 (f106 f107 (f88 (f89 f90 ?v0) ?v1)) ?v2) ?v3) ?v4) f1) (=> (=> (= ?v4 (f7 (f8 (f9 f10 ?v2) ?v0) (f14 ?v1 ?v2))) false) false))))
(assert (forall ((?v0 S7)) (= (f86 f87 (f108 f109 ?v0)) ?v0)))
(assert (forall ((?v0 Int)) (=> (<= 0 ?v0) (= (f108 f109 (f86 f87 ?v0)) ?v0))))
(assert (forall ((?v0 Int)) (=> (< ?v0 0) (= (f108 f109 (f86 f87 ?v0)) 0))))
(check-sat)
(exit)
